NAME: random75
TYPE: TSP
DIMENSION: 75
EDGE_WEIGHT_TYPE: EXPLICIT
EDGE_WEIGHT_FORMAT: FULL_MATRIX
EDGE_WEIGHT_SECTION
0 1210 1210 1210 1210 1210 1210 1210 1210 1210 1210 1210 1210 1210 1210 1210 1210 1210 1210 1210 1210 1210 1210 1210 1210 39 1210 1210 29 1210 1210 1210 1210 1210 1210 1210 1210 1210 1210 1210 1210 1210 2 18 1210 1210 1210 1210 1210 1210 1210 1210 1210 1210 1210 34 1210 14 1210 1210 1210 1210 1210 1210 1210 1210 1210 1210 1210 1210 1210 1210 1210 1210 1210
1210 0 1210 1210 1210 1210 1210 1210 1210 1210 1210 1210 1210 1210 1210 1210 1210 1210 1210 1210 1210 1210 1210 1210 1210 1210 1210 1210 1210 1 1210 1210 1210 1210 1210 1210 1210 1210 1210 1210 1210 1210 1210 1210 1210 1210 1210 1210 1210 1210 1210 1210 1210 1210 1210 1210 1210 1210 1210 1210 1210 1210 1210 1210 1210 1210 22 9 1210 1210 1210 1210 1210 1210 1210
1210 1210 0 1210 1210 13 1210 1210 1210 1210 1210 1210 1210 1210 1210 1210 1210 1210 1210 1210 1210 1210 1210 1210 1210 1210 13 1210 1210 1210 13 1210 1210 14 1210 1210 1210 1210 1210 1210 1210 1210 1210 1210 1210 1210 1210 1210 6 1210 1210 1210 1210 1210 1210 1210 1210 1210 1210 15 1210 1210 1210 1210 1210 1210 1210 1210 8 1210 1210 1210 1210 1210 1210
1210 1210 1210 0 1210 1210 1210 1210 1210 1210 1210 1210 1210 1210 1210 5 1210 1210 1210 1210 1210 1210 1210 1210 1210 1210 1210 1210 1210 1210 1210 1210 1210 1210 1210 1210 1210 1210 1210 10 1210 1210 1210 1210 1210 1210 1210 1210 1210 1210 1210 1210 1210 1210 1210 1210 12 1210 1210 1210 15 1210 12 1210 1210 1210 1210 1210 1210 1210 1210 1210 1210 1210 1210
1210 1210 1210 1210 0 1210 1210 1210 1210 28 1210 1210 38 1210 1210 1210 1210 1210 29 1210 1210 1210 1210 1210 1210 1210 1210 18 1210 1210 1210 1210 1210 1210 1210 1210 1210 1210 1210 1210 1210 20 1210 1210 35 1210 1210 1210 1210 1210 1210 1210 1210 1210 1210 1210 1210 1210 1210 1210 1210 1210 29 1210 1210 1210 1210 1210 1210 1210 1210 1210 1210 1210 1210
1210 1210 13 1210 1210 0 1210 1210 1210 1210 1210 1210 1210 13 1210 1210 1210 1210 1210 1210 1210 1210 1210 1210 1210 1210 1210 1210 1210 1210 5 1210 1210 1210 1210 1210 1210 1210 1210 1210 1210 1210 1210 1210 1210 8 1210 1210 1210 1210 1210 1210 1210 1210 1210 1210 1210 1210 1210 1210 1210 1210 1210 1210 1210 1210 1210 1210 13 1210 1210 10 1210 1210 1210
1210 1210 1210 1210 1210 1210 0 1210 1210 1210 1210 1210 1210 1210 1210 1210 1210 1210 1210 6 1210 1210 1210 1210 1210 1210 1210 1210 1210 1210 1210 1210 14 1210 1210 1210 1210 1210 1210 1210 1210 1210 1210 1210 1210 1210 1210 1210 1210 1210 1210 1210 1210 1210 1210 1210 1210 1210 1210 1210 1210 1210 1210 1210 1210 1210 8 1210 1210 1210 1210 1210 1210 1210 4
1210 1210 1210 1210 1210 1210 1210 0 1210 1210 1210 3 1210 1210 1210 1210 1210 20 1210 1210 1210 1210 1210 1210 1210 1210 1210 1210 16 1210 1210 1210 1210 1210 1210 1210 1210 1210 1210 1210 1210 1210 1210 1210 1210 1210 13 16 1210 1210 1210 1210 1210 1210 1210 1210 1210 1210 1210 1210 1210 1210 1210 1210 1210 1210 1210 1210 1210 1210 1210 1210 1210 1210 1210
1210 1210 1210 1210 1210 1210 1210 1210 0 1210 1210 1210 1210 1210 1210 1210 1210 1210 1210 1210 1210 1210 1210 1210 1210 8 1210 1210 6 1210 1210 1210 1210 1210 1210 1210 1210 1210 1210 1210 1210 1210 1210 1210 1210 1210 1210 6 1210 1210 1210 1210 1210 1210 1210 1210 1210 1210 1210 1210 1210 1210 1210 1210 1210 1210 1210 1210 1210 1210 1210 1210 1210 1210 1210
1210 1210 1210 1210 28 1210 1210 1210 1210 0 1210 1210 1210 1210 1210 6 1210 1210 18 1210 1210 1210 1210 1210 1210 1210 1210 1210 1210 1210 1210 1210 1210 1210 1210 1210 1210 1210 1210 6 1210 1210 1210 1210 1210 1210 1210 1210 1210 1210 1210 1210 1210 1210 1210 1210 1210 1210 1210 1210 1210 1210 14 1210 1210 1210 1210 1210 1210 1210 1210 1210 1210 1210 1210
1210 1210 1210 1210 1210 1210 1210 1210 1210 1210 0 1210 1210 1210 8 1210 1210 1210 1210 1210 1210 16 1210 1210 17 1210 1210 1210 1210 1210 1210 1210 1210 1210 1210 1210 1210 1210 1210 1210 1210 1210 1210 1210 1210 1210 1210 1210 1210 1210 1210 1210 1210 1210 1210 17 1210 1210 1210 1210 1210 11 1210 1210 1210 1210 59 1210 1210 1210 1210 1210 1210 1210 1210
1210 1210 1210 1210 1210 1210 1210 3 1210 1210 1210 0 1210 1210 1210 1210 1210 19 1210 1210 1210 1210 1210 1210 1210 1210 1210 1210 1210 1210 1210 1210 1210 1210 1210 1210 1210 1210 11 1210 1210 1210 1210 1210 1210 1210 14 1210 1210 1210 1210 1210 1210 14 1210 1210 1210 1210 1210 1210 1210 1210 1210 1210 1210 1210 1210 1210 1210 1210 1210 1210 1210 8 1210
1210 1210 1210 1210 38 1210 1210 1210 1210 1210 1210 1210 0 1210 1210 1210 1210 1210 1210 1210 1210 1210 1210 1210 1210 1210 1210 1210 1210 14 1210 1210 1210 1210 1210 1210 1210 1210 1210 1210 1210 1210 1210 1210 3 1210 1210 1210 1210 1210 1210 1210 1210 1210 1210 1210 1210 1210 1210 1210 1210 1210 1210 1210 1210 1210 1210 17 1210 1210 1210 1210 1210 1210 1210
1210 1210 1210 1210 1210 13 1210 1210 1210 1210 1210 1210 1210 0 1210 1210 6 1210 1210 1210 1210 1210 1210 1210 1210 1210 1210 1210 1210 1210 1210 1210 1210 1210 10 1210 1210 1210 1210 1210 1210 1210 1210 1210 1210 1210 1210 1210 1210 1210 1210 1210 1210 1210 1210 1210 1210 1210 1210 1210 1210 1210 1210 1210 1210 1210 1210 16 11 1210 1210 19 1210 1210 12
1210 1210 1210 1210 1210 1210 1210 1210 1210 1210 8 1210 1210 1210 0 1210 1210 1210 1210 1210 1210 1210 1210 1210 1210 1210 1210 1210 1210 1210 1210 1210 1210 1210 1210 1210 1210 1210 1210 1210 1210 1210 1210 1210 1210 1210 1210 1210 1210 1210 1210 1210 1210 1210 1210 9 1210 1210 1210 1210 1210 4 1210 1210 1210 1210 1210 1210 1210 1210 1210 1210 1210 1210 1210
1210 1210 1210 5 1210 1210 1210 1210 1210 6 1210 1210 1210 1210 1210 0 1210 1210 1210 1210 1210 1210 1210 1210 1210 1210 1210 1210 1210 1210 1210 1210 1210 1210 1210 1210 1210 1210 1210 9 1210 1210 1210 1210 1210 1210 1210 1210 1210 1210 1210 1210 1210 1210 1210 1210 1210 1210 1210 1210 1210 1210 10 1210 1210 1210 1210 1210 1210 1210 1210 1210 1210 1210 1210
1210 1210 1210 1210 1210 1210 1210 1210 1210 1210 1210 1210 1210 6 1210 1210 0 1210 1210 1210 1210 1210 1210 1210 1210 1210 13 1210 1210 1210 1210 1210 1210 1210 6 1210 1210 1210 1210 1210 1210 1210 1210 1210 1210 1210 1210 1210 1210 1210 1210 1210 17 1210 1210 1210 1210 1210 1210 1210 1210 1210 1210 1210 1210 1210 1210 1210 1210 1210 1210 1210 1210 1210 10
1210 1210 1210 1210 1210 1210 1210 20 1210 1210 1210 19 1210 1210 1210 1210 1210 0 1210 1210 47 1210 1210 1210 1210 1210 1210 1210 1210 1210 1210 1210 1210 1210 1210 1210 1210 1210 11 1210 1210 1210 1210 1210 1210 1210 1210 23 1210 28 1210 1210 1210 1210 1210 1210 1210 1210 1210 1210 28 1210 1210 1210 1210 1210 1210 1210 1210 1210 1210 1210 1210 1210 1210
1210 1210 1210 1210 29 1210 1210 1210 1210 18 1210 1210 1210 1210 1210 1210 1210 1210 0 1210 13 1210 1210 1210 1210 1210 1210 1210 1210 1210 1210 1210 1210 1210 1210 1210 1210 1210 1210 18 1210 1210 1210 1210 1210 1210 1210 1210 1210 1210 1210 1210 1210 1210 1210 1210 1210 1210 1210 1210 1210 1210 1210 1210 1210 1210 1210 1210 1210 1210 1210 1210 1210 1210 1210
1210 1210 1210 1210 1210 1210 6 1210 1210 1210 1210 1210 1210 1210 1210 1210 1210 1210 1210 0 1210 1210 1210 1210 1210 1210 1210 1210 1210 1210 1210 1210 1210 1210 1210 1210 1210 1210 1210 1210 1210 1210 1210 1210 1210 1210 1210 1210 1210 1210 1210 1210 1210 1210 1210 1210 1210 1210 1210 1210 1210 1210 1210 1210 1210 1210 3 16 1210 1210 1210 1210 1210 1210 9
1210 1210 1210 1210 1210 1210 1210 1210 1210 1210 1210 1210 1210 1210 1210 1210 1210 47 13 1210 0 1210 1210 1210 1210 1210 1210 1210 1210 1210 1210 1210 1210 1210 1210 1210 1210 1210 1210 12 1210 1210 1210 1210 1210 1210 1210 1210 1210 1210 1210 1210 1210 1210 1210 1210 1210 1210 1210 1210 19 1210 1210 1210 1210 1210 1210 1210 1210 1210 1210 1210 1210 1210 1210
1210 1210 1210 1210 1210 1210 1210 1210 1210 1210 16 1210 1210 1210 1210 1210 1210 1210 1210 1210 1210 0 1210 1210 11 1210 1210 1210 1210 1210 1210 1210 1210 1210 1210 1210 1210 18 1210 1210 1210 1210 1210 1210 1210 1210 1210 1210 1210 1210 1210 1210 1210 1210 1210 1210 1210 1210 5 1210 1210 19 1210 1210 18 1210 1210 1210 1210 1210 1210 1210 1210 1210 1210
1210 1210 1210 1210 1210 1210 1210 1210 1210 1210 1210 1210 1210 1210 1210 1210 1210 1210 1210 1210 1210 1210 0 1210 11 1210 1210 1210 1210 1210 1210 1210 1210 1210 1210 1210 1210 1210 1210 1210 1210 1210 1210 1210 1210 1210 1210 1210 1210 1210 1210 1210 10 1210 1210 1210 1210 1210 1210 1210 1210 1210 1210 1210 1210 1210 1210 1210 1210 4 4 1210 1210 1210 1210
1210 1210 1210 1210 1210 1210 1210 1210 1210 1210 1210 1210 1210 1210 1210 1210 1210 1210 1210 1210 1210 1210 1210 0 1210 1210 1210 1210 16 1210 1210 1210 1210 1210 1210 1210 1210 1210 1210 1210 1210 1210 1210 3 1210 1210 8 1210 1210 1210 1210 1210 1210 1210 1210 1210 1210 1210 1210 1210 1210 1210 1210 1210 1210 1210 1210 1210 1210 1210 1210 1210 1210 1210 1210
1210 1210 1210 1210 1210 1210 1210 1210 1210 1210 17 1210 1210 1210 1210 1210 1210 1210 1210 1210 1210 11 11 1210 0 1210 1210 1210 1210 1210 1210 1210 1210 1210 1210 1210 1210 1210 1210 1210 1210 1210 1210 1210 1210 1210 1210 1210 1210 1210 1210 1210 1210 1210 1210 1210 1210 1210 12 1210 1210 1210 1210 1210 1210 1210 42 1210 1210 11 12 1210 1210 1210 1210
39 1210 1210 1210 1210 1210 1210 1210 8 1210 1210 1210 1210 1210 1210 1210 1210 1210 1210 1210 1210 1210 1210 1210 1210 0 1210 1210 14 1210 1210 1210 1210 1210 1210 1210 1210 1210 1210 1210 1210 1210 1210 1210 1210 1210 1210 10 1210 1210 1210 1210 1210 1210 6 73 1210 1210 1210 1210 1210 1210 1210 1210 1210 1210 1210 1210 1210 1210 1210 1210 1210 1210 1210
1210 1210 13 1210 1210 1210 1210 1210 1210 1210 1210 1210 1210 1210 1210 1210 13 1210 1210 1210 1210 1210 1210 1210 1210 1210 0 1210 1210 1210 1210 1210 1210 2 10 1210 1210 1210 1210 1210 1210 1210 1210 1210 1210 1210 1210 1210 1210 1210 1210 1210 10 1210 1210 1210 1210 1210 1210 1210 1210 1210 1210 1210 1210 1210 1210 1210 10 1210 1210 1210 1210 1210 1210
1210 1210 1210 1210 18 1210 1210 1210 1210 1210 1210 1210 1210 1210 1210 1210 1210 1210 1210 1210 1210 1210 1210 1210 1210 1210 1210 0 1210 1210 1210 6 1210 1210 1210 1210 1210 1210 1210 1210 1210 7 1210 1210 1210 1210 1210 1210 1210 1210 1210 1210 1210 1210 1210 1210 1210 1210 1210 1210 1210 1210 21 1210 1210 1210 1210 1210 1210 1210 1210 1210 1210 1210 1210
29 1210 1210 1210 1210 1210 1210 16 6 1210 1210 1210 1210 1210 1210 1210 1210 1210 1210 1210 1210 1210 1210 16 1210 14 1210 1210 0 1210 1210 1210 1210 1210 1210 1210 1210 1210 1210 1210 1210 1210 1210 18 1210 1210 17 11 1210 1210 1210 1210 1210 1210 1210 1210 1210 1210 1210 1210 1210 1210 1210 1210 1210 1210 1210 1210 1210 1210 1210 1210 1210 1210 1210
1210 1 1210 1210 1210 1210 1210 1210 1210 1210 1210 1210 14 1210 1210 1210 1210 1210 1210 1210 1210 1210 1210 1210 1210 1210 1210 1210 1210 0 1210 1210 1210 1210 1210 1210 1210 1210 1210 1210 1210 1210 1210 1210 1210 1210 1210 1210 1210 1210 1210 1210 1210 1210 1210 1210 1210 1210 1210 1210 1210 1210 1210 1210 1210 1210 1210 10 1210 1210 1210 1210 1210 1210 1210
1210 1210 13 1210 1210 5 1210 1210 1210 1210 1210 1210 1210 1210 1210 1210 1210 1210 1210 1210 1210 1210 1210 1210 1210 1210 1210 1210 1210 1210 0 1210 1210 1210 1210 1210 1210 1210 1210 1210 1210 1210 1210 1210 1210 4 1210 1210 1210 1210 1210 1210 1210 1210 1210 1210 1210 1210 1210 5 1210 1210 1210 1210 1210 1210 1210 1210 1210 1210 1210 1210 1210 1210 1210
1210 1210 1210 1210 1210 1210 1210 1210 1210 1210 1210 1210 1210 1210 1210 1210 1210 1210 1210 1210 1210 1210 1210 1210 1210 1210 1210 6 1210 1210 1210 0 1210 1210 1210 1210 1210 1210 1210 1210 1210 8 1210 1210 1210 10 1210 1210 1210 1210 1210 1210 1210 1210 1210 1210 1210 1210 1210 11 1210 1210 21 1210 1210 1210 1210 1210 1210 1210 1210 11 1210 1210 1210
1210 1210 1210 1210 1210 1210 14 1210 1210 1210 1210 1210 1210 1210 1210 1210 1210 1210 1210 1210 1210 1210 1210 1210 1210 1210 1210 1210 1210 1210 1210 1210 0 1210 1210 1210 1210 1210 1210 1210 1210 1210 1210 1210 1210 1210 1210 1210 1210 1210 1210 1210 6 1210 1210 1210 1210 1210 1210 1210 1210 1210 1210 1210 1210 1210 21 1210 1210 11 1210 1210 1210 1210 15
1210 1210 14 1210 1210 1210 1210 1210 1210 1210 1210 1210 1210 1210 1210 1210 1210 1210 1210 1210 1210 1210 1210 1210 1210 1210 2 1210 1210 1210 1210 1210 1210 0 1210 1210 1210 1210 1210 1210 1210 1210 1210 1210 1210 1210 1210 1210 15 1210 1210 22 10 1210 1210 1210 1210 1210 19 1210 1210 1210 1210 1210 1210 1210 1210 1210 1210 1210 13 1210 1210 1210 1210
1210 1210 1210 1210 1210 1210 1210 1210 1210 1210 1210 1210 1210 10 1210 1210 6 1210 1210 1210 1210 1210 1210 1210 1210 1210 10 1210 1210 1210 1210 1210 1210 1210 0 1210 1210 1210 1210 1210 1210 1210 1210 1210 1210 1210 1210 1210 1210 1210 1210 1210 1210 1210 1210 1210 1210 1210 1210 1210 1210 1210 1210 1210 1210 1210 1210 1210 2 1210 1210 1210 1210 1210 1210
1210 1210 1210 1210 1210 1210 1210 1210 1210 1210 1210 1210 1210 1210 1210 1210 1210 1210 1210 1210 1210 1210 1210 1210 1210 1210 1210 1210 1210 1210 1210 1210 1210 1210 1210 0 6 1210 1210 1210 1210 1210 1210 1210 1210 1210 1210 1210 1210 1210 6 1210 1210 22 1210 1210 25 1210 1210 17 1210 1210 24 1210 1210 1210 1210 1210 1210 1210 1210 1210 1210 1210 1210
1210 1210 1210 1210 1210 1210 1210 1210 1210 1210 1210 1210 1210 1210 1210 1210 1210 1210 1210 1210 1210 1210 1210 1210 1210 1210 1210 1210 1210 1210 1210 1210 1210 1210 1210 6 0 1210 1210 1210 18 1210 1210 1210 1210 1210 21 1210 1210 1210 10 19 1210 21 1210 1210 1210 1210 1210 1210 1210 1210 1210 1210 1210 1210 1210 1210 1210 1210 1210 1210 1210 1210 1210
1210 1210 1210 1210 1210 1210 1210 1210 1210 1210 1210 1210 1210 1210 1210 1210 1210 1210 1210 1210 1210 18 1210 1210 1210 1210 1210 1210 1210 1210 1210 1210 1210 1210 1210 1210 1210 0 1210 1210 1210 1210 1210 1210 1210 1210 1210 1210 1210 1210 1210 1210 1210 1210 1210 16 1210 8 1210 1210 1210 13 1210 1210 10 1210 1210 1210 1210 1210 1210 1210 1210 1210 1210
1210 1210 1210 1210 1210 1210 1210 1210 1210 1210 1210 11 1210 1210 1210 1210 1210 11 1210 1210 1210 1210 1210 1210 1210 1210 1210 1210 1210 1210 1210 1210 1210 1210 1210 1210 1210 1210 0 1210 1210 1210 1210 1210 1210 1210 1210 1210 1210 1210 1210 1210 1210 1210 1210 1210 18 1210 1210 1210 24 1210 1210 12 1210 1210 1210 1210 1210 1210 1210 1210 1210 8 1210
1210 1210 1210 10 1210 1210 1210 1210 1210 6 1210 1210 1210 1210 1210 9 1210 1210 18 1210 12 1210 1210 1210 1210 1210 1210 1210 1210 1210 1210 1210 1210 1210 1210 1210 1210 1210 1210 0 1210 1210 1210 1210 1210 1210 1210 1210 1210 1210 1210 1210 1210 1210 1210 1210 1210 1210 1210 1210 16 1210 1210 1210 1210 1210 1210 1210 1210 1210 1210 1210 1210 1210 1210
1210 1210 1210 1210 1210 1210 1210 1210 1210 1210 1210 1210 1210 1210 1210 1210 1210 1210 1210 1210 1210 1210 1210 1210 1210 1210 1210 1210 1210 1210 1210 1210 1210 1210 1210 1210 18 1210 1210 1210 0 1210 20 18 1210 1210 23 1210 1210 1210 1210 7 1210 1210 1210 1210 1210 1210 1210 1210 1210 1210 1210 1210 1210 1210 1210 1210 1210 1210 1210 1210 16 1210 1210
1210 1210 1210 1210 20 1210 1210 1210 1210 1210 1210 1210 1210 1210 1210 1210 1210 1210 1210 1210 1210 1210 1210 1210 1210 1210 1210 7 1210 1210 1210 8 1210 1210 1210 1210 1210 1210 1210 1210 1210 0 1210 1210 25 1210 1210 1210 1210 1210 1210 1210 1210 1210 1210 1210 1210 1210 1210 1210 1210 1210 1210 1210 1210 6 1210 1210 1210 1210 1210 8 1210 1210 1210
2 1210 1210 1210 1210 1210 1210 1210 1210 1210 1210 1210 1210 1210 1210 1210 1210 1210 1210 1210 1210 1210 1210 1210 1210 1210 1210 1210 1210 1210 1210 1210 1210 1210 1210 1210 1210 1210 1210 1210 20 1210 0 18 1210 1210 1210 1210 1210 1210 1210 1210 1210 1210 1210 1210 1210 13 1210 1210 1210 1210 1210 1210 1210 1210 1210 1210 1210 1210 1210 1210 16 1210 1210
18 1210 1210 1210 1210 1210 1210 1210 1210 1210 1210 1210 1210 1210 1210 1210 1210 1210 1210 1210 1210 1210 1210 3 1210 1210 1210 1210 18 1210 1210 1210 1210 1210 1210 1210 1210 1210 1210 1210 18 1210 18 0 1210 1210 10 1210 1210 1210 1210 1210 1210 1210 1210 1210 1210 1210 1210 1210 1210 1210 1210 1210 1210 1210 1210 1210 1210 1210 1210 1210 1210 1210 1210
1210 1210 1210 1210 35 1210 1210 1210 1210 1210 1210 1210 3 1210 1210 1210 1210 1210 1210 1210 1210 1210 1210 1210 1210 1210 1210 1210 1210 1210 1210 1210 1210 1210 1210 1210 1210 1210 1210 1210 1210 25 1210 1210 0 1210 1210 1210 1210 1210 1210 1210 1210 1210 1210 1210 1210 1210 1210 1210 1210 1210 1210 1210 1210 22 1210 17 1210 1210 1210 1210 1210 1210 1210
1210 1210 1210 1210 1210 8 1210 1210 1210 1210 1210 1210 1210 1210 1210 1210 1210 1210 1210 1210 1210 1210 1210 1210 1210 1210 1210 1210 1210 1210 4 10 1210 1210 1210 1210 1210 1210 1210 1210 1210 1210 1210 1210 1210 0 1210 1210 1210 1210 1210 1210 1210 1210 1210 1210 1210 1210 1210 3 1210 1210 1210 1210 1210 1210 1210 1210 1210 1210 1210 11 1210 1210 1210
1210 1210 1210 1210 1210 1210 1210 13 1210 1210 1210 14 1210 1210 1210 1210 1210 1210 1210 1210 1210 1210 1210 8 1210 1210 1210 1210 17 1210 1210 1210 1210 1210 1210 1210 21 1210 1210 1210 23 1210 1210 10 1210 1210 0 1210 1210 1210 1210 1210 1210 19 1210 1210 1210 1210 1210 1210 1210 1210 1210 1210 1210 1210 1210 1210 1210 1210 1210 1210 1210 1210 1210
1210 1210 1210 1210 1210 1210 1210 16 6 1210 1210 1210 1210 1210 1210 1210 1210 23 1210 1210 1210 1210 1210 1210 1210 10 1210 1210 11 1210 1210 1210 1210 1210 1210 1210 1210 1210 1210 1210 1210 1210 1210 1210 1210 1210 1210 0 1210 12 1210 1210 1210 1210 11 1210 1210 1210 1210 1210 1210 1210 1210 1210 1210 1210 1210 1210 1210 1210 1210 1210 1210 1210 1210
1210 1210 6 1210 1210 1210 1210 1210 1210 1210 1210 1210 1210 1210 1210 1210 1210 1210 1210 1210 1210 1210 1210 1210 1210 1210 1210 1210 1210 1210 1210 1210 1210 15 1210 1210 1210 1210 1210 1210 1210 1210 1210 1210 1210 1210 1210 1210 0 1210 12 16 1210 1210 1210 1210 1210 1210 1210 17 1210 1210 1210 1210 1210 1210 1210 1210 1210 1210 1210 1210 1210 1210 1210
1210 1210 1210 1210 1210 1210 1210 1210 1210 1210 1210 1210 1210 1210 1210 1210 1210 28 1210 1210 1210 1210 1210 1210 1210 1210 1210 1210 1210 1210 1210 1210 1210 1210 1210 1210 1210 1210 1210 1210 1210 1210 1210 1210 1210 1210 1210 12 1210 0 1210 1210 1210 1210 2 1210 1210 1210 1210 1210 1210 1210 1210 1210 1210 1210 1210 1210 1210 1210 1210 1210 1210 1210 1210
1210 1210 1210 1210 1210 1210 1210 1210 1210 1210 1210 1210 1210 1210 1210 1210 1210 1210 1210 1210 1210 1210 1210 1210 1210 1210 1210 1210 1210 1210 1210 1210 1210 1210 1210 6 10 1210 1210 1210 1210 1210 1210 1210 1210 1210 1210 1210 12 1210 0 20 1210 1210 1210 1210 1210 1210 1210 13 1210 1210 1210 1210 1210 1210 1210 1210 1210 1210 1210 1210 1210 1210 1210
1210 1210 1210 1210 1210 1210 1210 1210 1210 1210 1210 1210 1210 1210 1210 1210 1210 1210 1210 1210 1210 1210 1210 1210 1210 1210 1210 1210 1210 1210 1210 1210 1210 22 1210 1210 19 1210 1210 1210 7 1210 1210 1210 1210 1210 1210 1210 16 1210 20 0 1210 1210 1210 1210 1210 1210 22 1210 1210 1210 1210 1210 16 1210 1210 1210 1210 1210 1210 1210 16 1210 1210
1210 1210 1210 1210 1210 1210 1210 1210 1210 1210 1210 1210 1210 1210 1210 1210 17 1210 1210 1210 1210 1210 10 1210 1210 1210 10 1210 1210 1210 1210 1210 6 10 1210 1210 1210 1210 1210 1210 1210 1210 1210 1210 1210 1210 1210 1210 1210 1210 1210 1210 0 1210 1210 1210 1210 1210 1210 1210 1210 1210 1210 1210 1210 1210 1210 1210 1210 11 12 1210 1210 1210 17
1210 1210 1210 1210 1210 1210 1210 1210 1210 1210 1210 14 1210 1210 1210 1210 1210 1210 1210 1210 1210 1210 1210 1210 1210 1210 1210 1210 1210 1210 1210 1210 1210 1210 1210 22 21 1210 1210 1210 1210 1210 1210 1210 1210 1210 19 1210 1210 1210 1210 1210 1210 0 1210 1210 9 1210 1210 1210 1210 1210 1210 3 1210 1210 1210 1210 1210 1210 1210 1210 1210 8 1210
1210 1210 1210 1210 1210 1210 1210 1210 1210 1210 1210 1210 1210 1210 1210 1210 1210 1210 1210 1210 1210 1210 1210 1210 1210 6 1210 1210 1210 1210 1210 1210 1210 1210 1210 1210 1210 1210 1210 1210 1210 1210 1210 1210 1210 1210 1210 11 1210 2 1210 1210 1210 1210 0 78 1210 1210 1210 1210 1210 1210 1210 1210 1210 1210 1210 1210 1210 1210 1210 1210 1210 1210 1210
34 1210 1210 1210 1210 1210 1210 1210 1210 1210 17 1210 1210 1210 9 1210 1210 1210 1210 1210 1210 1210 1210 1210 1210 73 1210 1210 1210 1210 1210 1210 1210 1210 1210 1210 1210 16 1210 1210 1210 1210 1210 1210 1210 1210 1210 1210 1210 1210 1210 1210 1210 1210 78 0 1210 21 1210 1210 1210 8 1210 1210 1210 1210 1210 1210 1210 1210 1210 1210 1210 1210 1210
1210 1210 1210 12 1210 1210 1210 1210 1210 1210 1210 1210 1210 1210 1210 1210 1210 1210 1210 1210 1210 1210 1210 1210 1210 1210 1210 1210 1210 1210 1210 1210 1210 1210 1210 25 1210 1210 18 1210 1210 1210 1210 1210 1210 1210 1210 1210 1210 1210 1210 1210 1210 9 1210 1210 0 1210 1210 1210 19 1210 17 9 1210 1210 1210 1210 1210 1210 1210 1210 1210 1210 1210
14 1210 1210 1210 1210 1210 1210 1210 1210 1210 1210 1210 1210 1210 1210 1210 1210 1210 1210 1210 1210 1210 1210 1210 1210 1210 1210 1210 1210 1210 1210 1210 1210 1210 1210 1210 1210 8 1210 1210 1210 1210 13 1210 1210 1210 1210 1210 1210 1210 1210 1210 1210 1210 1210 21 1210 0 1210 1210 1210 1210 1210 1210 11 1210 1210 1210 1210 1210 1210 1210 10 1210 1210
1210 1210 1210 1210 1210 1210 1210 1210 1210 1210 1210 1210 1210 1210 1210 1210 1210 1210 1210 1210 1210 5 1210 1210 12 1210 1210 1210 1210 1210 1210 1210 1210 19 1210 1210 1210 1210 1210 1210 1210 1210 1210 1210 1210 1210 1210 1210 1210 1210 1210 22 1210 1210 1210 1210 1210 1210 0 1210 1210 1210 1210 1210 17 1210 1210 1210 1210 1210 9 1210 1210 1210 1210
1210 1210 15 1210 1210 1210 1210 1210 1210 1210 1210 1210 1210 1210 1210 1210 1210 1210 1210 1210 1210 1210 1210 1210 1210 1210 1210 1210 1210 1210 5 11 1210 1210 1210 17 1210 1210 1210 1210 1210 1210 1210 1210 1210 3 1210 1210 17 1210 13 1210 1210 1210 1210 1210 1210 1210 1210 0 1210 1210 25 1210 1210 1210 1210 1210 1210 1210 1210 1210 1210 1210 1210
1210 1210 1210 15 1210 1210 1210 1210 1210 1210 1210 1210 1210 1210 1210 1210 1210 28 1210 1210 19 1210 1210 1210 1210 1210 1210 1210 1210 1210 1210 1210 1210 1210 1210 1210 1210 1210 24 16 1210 1210 1210 1210 1210 1210 1210 1210 1210 1210 1210 1210 1210 1210 1210 1210 19 1210 1210 1210 0 1210 1210 1210 1210 1210 1210 1210 1210 1210 1210 1210 1210 1210 1210
1210 1210 1210 1210 1210 1210 1210 1210 1210 1210 11 1210 1210 1210 4 1210 1210 1210 1210 1210 1210 19 1210 1210 1210 1210 1210 1210 1210 1210 1210 1210 1210 1210 1210 1210 1210 13 1210 1210 1210 1210 1210 1210 1210 1210 1210 1210 1210 1210 1210 1210 1210 1210 1210 8 1210 1210 1210 1210 1210 0 1210 1210 1210 1210 1210 1210 1210 1210 1210 1210 1210 1210 1210
1210 1210 1210 12 29 1210 1210 1210 1210 14 1210 1210 1210 1210 1210 10 1210 1210 1210 1210 1210 1210 1210 1210 1210 1210 1210 21 1210 1210 1210 21 1210 1210 1210 24 1210 1210 1210 1210 1210 1210 1210 1210 1210 1210 1210 1210 1210 1210 1210 1210 1210 1210 1210 1210 17 1210 1210 25 1210 1210 0 1210 1210 1210 1210 1210 1210 1210 1210 1210 1210 1210 1210
1210 1210 1210 1210 1210 1210 1210 1210 1210 1210 1210 1210 1210 1210 1210 1210 1210 1210 1210 1210 1210 1210 1210 1210 1210 1210 1210 1210 1210 1210 1210 1210 1210 1210 1210 1210 1210 1210 12 1210 1210 1210 1210 1210 1210 1210 1210 1210 1210 1210 1210 1210 1210 3 1210 1210 9 1210 1210 1210 1210 1210 1210 0 1210 1210 1210 1210 1210 1210 1210 1210 1210 6 1210
1210 1210 1210 1210 1210 1210 1210 1210 1210 1210 1210 1210 1210 1210 1210 1210 1210 1210 1210 1210 1210 18 1210 1210 1210 1210 1210 1210 1210 1210 1210 1210 1210 1210 1210 1210 1210 10 1210 1210 1210 1210 1210 1210 1210 1210 1210 1210 1210 1210 1210 16 1210 1210 1210 1210 1210 11 17 1210 1210 1210 1210 1210 0 1210 1210 1210 1210 1210 1210 1210 2 1210 1210
1210 1210 1210 1210 1210 1210 1210 1210 1210 1210 1210 1210 1210 1210 1210 1210 1210 1210 1210 1210 1210 1210 1210 1210 1210 1210 1210 1210 1210 1210 1210 1210 1210 1210 1210 1210 1210 1210 1210 1210 1210 6 1210 1210 22 1210 1210 1210 1210 1210 1210 1210 1210 1210 1210 1210 1210 1210 1210 1210 1210 1210 1210 1210 1210 0 1210 26 1210 1210 1210 3 1210 1210 1210
1210 22 1210 1210 1210 1210 8 1210 1210 1210 59 1210 1210 1210 1210 1210 1210 1210 1210 3 1210 1210 1210 1210 42 1210 1210 1210 1210 1210 1210 1210 21 1210 1210 1210 1210 1210 1210 1210 1210 1210 1210 1210 1210 1210 1210 1210 1210 1210 1210 1210 1210 1210 1210 1210 1210 1210 1210 1210 1210 1210 1210 1210 1210 1210 0 18 1210 32 1210 1210 1210 1210 1210
1210 9 1210 1210 1210 1210 1210 1210 1210 1210 1210 1210 17 16 1210 1210 1210 1210 1210 16 1210 1210 1210 1210 1210 1210 1210 1210 1210 10 1210 1210 1210 1210 1210 1210 1210 1210 1210 1210 1210 1210 1210 1210 17 1210 1210 1210 1210 1210 1210 1210 1210 1210 1210 1210 1210 1210 1210 1210 1210 1210 1210 1210 1210 26 18 0 1210 1210 1210 26 1210 1210 18
1210 1210 8 1210 1210 13 1210 1210 1210 1210 1210 1210 1210 11 1210 1210 1210 1210 1210 1210 1210 1210 1210 1210 1210 1210 10 1210 1210 1210 1210 1210 1210 1210 2 1210 1210 1210 1210 1210 1210 1210 1210 1210 1210 1210 1210 1210 1210 1210 1210 1210 1210 1210 1210 1210 1210 1210 1210 1210 1210 1210 1210 1210 1210 1210 1210 1210 0 1210 1210 1210 1210 1210 1210
1210 1210 1210 1210 1210 1210 1210 1210 1210 1210 1210 1210 1210 1210 1210 1210 1210 1210 1210 1210 1210 1210 4 1210 11 1210 1210 1210 1210 1210 1210 1210 11 1210 1210 1210 1210 1210 1210 1210 1210 1210 1210 1210 1210 1210 1210 1210 1210 1210 1210 1210 11 1210 1210 1210 1210 1210 1210 1210 1210 1210 1210 1210 1210 1210 32 1210 1210 0 1210 1210 1210 1210 1210
1210 1210 1210 1210 1210 1210 1210 1210 1210 1210 1210 1210 1210 1210 1210 1210 1210 1210 1210 1210 1210 1210 4 1210 12 1210 1210 1210 1210 1210 1210 1210 1210 13 1210 1210 1210 1210 1210 1210 1210 1210 1210 1210 1210 1210 1210 1210 1210 1210 1210 1210 12 1210 1210 1210 1210 1210 9 1210 1210 1210 1210 1210 1210 1210 1210 1210 1210 1210 0 1210 1210 1210 1210
1210 1210 1210 1210 1210 10 1210 1210 1210 1210 1210 1210 1210 19 1210 1210 1210 1210 1210 1210 1210 1210 1210 1210 1210 1210 1210 1210 1210 1210 1210 11 1210 1210 1210 1210 1210 1210 1210 1210 1210 8 1210 1210 1210 11 1210 1210 1210 1210 1210 1210 1210 1210 1210 1210 1210 1210 1210 1210 1210 1210 1210 1210 1210 3 1210 26 1210 1210 1210 0 1210 1210 1210
1210 1210 1210 1210 1210 1210 1210 1210 1210 1210 1210 1210 1210 1210 1210 1210 1210 1210 1210 1210 1210 1210 1210 1210 1210 1210 1210 1210 1210 1210 1210 1210 1210 1210 1210 1210 1210 1210 1210 1210 16 1210 16 1210 1210 1210 1210 1210 1210 1210 1210 16 1210 1210 1210 1210 1210 10 1210 1210 1210 1210 1210 1210 2 1210 1210 1210 1210 1210 1210 1210 0 1210 1210
1210 1210 1210 1210 1210 1210 1210 1210 1210 1210 1210 8 1210 1210 1210 1210 1210 1210 1210 1210 1210 1210 1210 1210 1210 1210 1210 1210 1210 1210 1210 1210 1210 1210 1210 1210 1210 1210 8 1210 1210 1210 1210 1210 1210 1210 1210 1210 1210 1210 1210 1210 1210 8 1210 1210 1210 1210 1210 1210 1210 1210 1210 6 1210 1210 1210 1210 1210 1210 1210 1210 1210 0 1210
1210 1210 1210 1210 1210 1210 4 1210 1210 1210 1210 1210 1210 12 1210 1210 10 1210 1210 9 1210 1210 1210 1210 1210 1210 1210 1210 1210 1210 1210 1210 15 1210 1210 1210 1210 1210 1210 1210 1210 1210 1210 1210 1210 1210 1210 1210 1210 1210 1210 1210 17 1210 1210 1210 1210 1210 1210 1210 1210 1210 1210 1210 1210 1210 1210 18 1210 1210 1210 1210 1210 1210 0
EOF
